c --- [ banner ] -------------------------------------------------------------
c 
c CaDiCaL Radically Simplified CDCL SAT Solver
c Copyright (c) 2016-2021 A. Biere, M. Fleury, N. Froleyks
c 
c Version 1.5.2 9c38a080b32c28d805e8e6ca21849856b0cda605
c g++ (Ubuntu 7.5.0-3ubuntu1~18.04) 7.5.0 -Wall -Wextra -O3 -DNDEBUG
c Wed Feb 16 23:15:36 EST 2022 Linux fac-vanhoeve01 5.4.0-99-generic x86_64
c 
c --- [ limit ] --------------------------------------------------------------
c 
c setting time limit to 600 seconds real time (due to '-t 600')
c setting conflict limit to 1000000000 conflicts (due to '1000000000')
c 
c --- [ parsing input ] ------------------------------------------------------
c 
c reading DIMACS file from 'ddfwcnfs/le450_25d.col_25.cnf'
c opening file to read 'ddfwcnfs/le450_25d.col_25.cnf'
c found 'p cnf 11250 385900' header
c parsed 385900 clauses in 0.24 seconds process time
c closing file 'ddfwcnfs/le450_25d.col_25.cnf'
c after reading 5435487 bytes 5.2 MB
c 
c --- [ options ] ------------------------------------------------------------
c 
c all options are set to their default value
c 
c --- [ solving ] ------------------------------------------------------------
c 
c time measured in process time since initialization
c 
c  seconds  reductions  redundant  irredundant
c         MB    restarts       trail       variables
c          level   conflicts       glue         remaining
c 
c *  0.24 37  0 0   0    0    0  0% 0 385275 10625 94%
c {  0.25 37  0 0   0    0    0  0% 0 385275 10625 94%
c -  0.35 38 24 1   0  304  188 23% 20 385275 10625 94%
c }  0.41 38 23 1   0 1000  641 22% 20 385275 10625 94%
c [  0.41 38  0 1   0 1000  641  0% 0 385275 10625 94%
c O  0.41 38 33 1   0 1002  643 38% 27 385275 10625 94%
c -  0.67 49 25 2   0 1257  715 33% 22 385275 10625 94%
c -  0.93 50 27 3   1 2684 1321 32% 23 385275 10625 94%
c ]  0.95 50 27 3   1 3002 1539 32% 23 385275 10625 94%
c {  0.95 50 23 3   1 3002 1539 22% 20 385275 10625 94%
c F  0.96 50 23 3   1 3003 1540 22% 20 385275 10625 94%
c -  1.22 50 34 4  38 4586 1687 24% 20 385275 10625 94%
c #  1.76 49 30 4  52 6009 2467 24% 20 385275 10625 94%
c -  2.00 49 30 5  65 6965 2018 24% 20 385275 10625 94%
c }  2.00 49 29 5  65 7004 2031 24% 20 385275 10625 94%
c [  2.00 49 27 5  65 7004 2031 32% 23 385275 10625 94%
c -  2.34 49 27 6  67 9819 2374 26% 23 385275 10625 94%
c I  2.36 49 27 6  67 10011 2517 26% 23 385275 10625 94%
c s  2.57 58 87 6  68 10361 2636 29% 25 385275 10625 94%
c e  3.57 58 87 6  68 10361 1397 29% 25 265758 8477 75%
c 
c  seconds  reductions   redundant   irredundant
c         MB    restarts        trail       variables
c          level    conflicts       glue         remaining
c 
c s  3.83 60 87 6  68 10361 1396 29% 25 265758 8477 75%
c ^  3.90 60 87 6  68 10361 1396 29% 25 265758 8477 75%
c -  5.47 63 92 7  69 13149 3107 73% 41 265758 8477 75%
c ]  7.03 63 94 7  70 15009 4861 73% 47 265758 8477 75%
c {  7.03 63 29 7  70 15009 4861 32% 20 265758 8477 75%
c B  7.03 63 30 7  71 15015 4867 32% 20 265758 8477 75%
c -  7.63 63 34 8 297 16567 3627 32% 23 265758 8477 75%
c -  8.04 63 31 9 442 20413 2908 28% 24 265758 8477 75%
c W  8.31 63 31 9 471 21016 3186 28% 24 265758 8477 75%
c -  8.83 63 32 10 773 24686 3329 26% 25 265758 8477 75%
c F  9.10 63 31 10 908 28017 5179 25% 25 265758 8477 75%
c -  9.36 63 31 11 909 29388 3864 25% 25 265758 8477 75%
c s 10.27 63 31 11 909 30243 4374 25% 25 265758 8477 75%
c s 11.00 63 31 11 909 30243 4307 25% 25 265758 8477 75%
c ^ 11.06 63 31 11 909 30243 4307 25% 25 265758 8477 75%
c } 11.15 63 31 11 909 31011 4859 25% 24 265758 8477 75%
c [ 11.15 63 94 11 909 31011 4859 73% 47 265758 8477 75%
c - 11.63 63 77 12 911 34516 4728 51% 41 265758 8477 75%
c B 11.77 63 72 12 912 36021 5815 46% 40 265758 8477 75%
c - 13.12 64 125 13 915 40074 5951 54% 51 265758 8477 75%
c 
c  seconds   reductions     redundant   irredundant
c         MB      restarts         trail       variables
c           level     conflicts        glue         remaining
c 
c W 15.63 64 127 13 916 45022 10505 60% 61 265758 8477 75%
c - 16.35 74 127 14 917 46059 7309 61% 63 265758 8477 75%
c - 20.79 64 124 15 917 52469 8087 65% 69 265758 8477 75%
c O 22.13 64 122 15 918 55023 10459 67% 71 265758 8477 75%
c - 22.78 73 113 16 921 59309 8269 63% 67 265758 8477 75%
c s 22.96 73 111 16 922 60067 8800 62% 66 265758 8477 75%
c s 23.83 73 111 16 922 60067 8769 62% 66 265758 8477 75%
c ^ 23.89 73 111 16 922 60067 8769 62% 66 265758 8477 75%
c ] 24.14 73 104 16 924 63012 10662 59% 63 265758 8477 75%
c { 24.14 73 31 16 924 63012 10662 25% 24 265758 8477 75%
c B 24.42 73 31 16 937 66025 12545 25% 25 265758 8477 75%
c - 24.66 73 31 17 972 66575 8596 25% 25 265758 8477 75%
c - 25.53 73 32 18 976 74268 8283 24% 24 265758 8477 75%
c W 27.33 73 32 18 988 78026 11299 23% 24 265758 8477 75%
c - 28.56 73 34 19 1209 82389 8311 24% 25 265758 8477 75%
c - 29.48 73 33 20 1280 90939 8274 24% 24 265758 8477 75%
c # 29.49 73 33 20 1280 91027 8343 24% 24 265758 8477 75%
c s 30.40 73 31 20 1291 99831 13119 23% 24 265758 8477 75%
c s 31.26 73 31 20 1291 99831 12397 23% 24 265758 8477 75%
c ^ 31.33 73 31 20 1291 99831 12397 23% 24 265758 8477 75%
c 
c  seconds  reductions     redundant   irredundant
c         MB     restarts         trail       variables
c          level      conflicts       glue         remaining
c 
c - 31.51 73 31 21 1291 99915 7045 23% 24 265758 8477 75%
c B 32.50 73 31 21 1291 105028 10839 23% 23 265758 8477 75%
c - 33.17 73 31 22 1587 109316 8348 23% 24 265758 8477 75%
c - 33.90 73 31 23 2011 119145 7529 23% 24 265758 8477 75%
c W 34.60 73 31 23 2033 120030 8090 23% 24 265758 8477 75%
c } 35.06 73 30 23 2103 127012 12188 23% 24 265758 8477 75%
c [ 35.06 73 104 23 2103 127012 12188 59% 63 265758 8477 75%
c - 35.34 73 99 24 2103 129401 8367 56% 60 265758 8477 75%
c B 35.81 73 88 24 2108 136031 12833 50% 55 265758 8477 75%
c - 37.36 73 114 25 2110 140084 10925 52% 57 265758 8477 75%
c s 40.69 73 115 25 2111 149537 19175 57% 64 265758 8477 75%
c w 40.93 73 115 25 2111 149537 19174 57% 64 265758 8477 75%
c s 41.38 73 115 25 2111 149537 19133 57% 64 265758 8477 75%
c ^ 41.43 73 115 25 2111 149537 19133 57% 64 265758 8477 75%
c - 42.27 86 115 26 2111 151197 12978 57% 65 265758 8477 75%
c W 43.65 86 115 26 2112 153036 14570 58% 66 265758 8477 75%
c - 45.50 73 220 27 2112 162737 13528 58% 74 265758 8477 75%
c I 46.98 73 260 27 2115 171037 20270 58% 77 265758 8477 75%
c - 48.59 87 271 28 2118 174705 14818 59% 82 265758 8477 75%
c - 55.06 73 251 29 2125 187100 15561 63% 89 265758 8477 75%
c 
c  seconds   reductions       redundant   irredundant
c         MB      restarts           trail       variables
c           level      conflicts         glue         remaining
c 
c B 56.53 73 247 29 2126 190038 18371 63% 91 265758 8477 75%
c - 61.12 88 232 30 2127 199920 16726 66% 94 265758 8477 75%
c s 65.54 88 220 30 2133 209183 25038 67% 96 265758 8477 75%
c e 66.31 88 220 30 2133 209183 25038 67% 96 265773 8476 75%
c s 66.37 88 220 30 2133 209183 25024 67% 96 265773 8476 75%
c W 68.07 88 219 30 2134 210039 25776 67% 96 265773 8476 75%
c - 69.78 73 215 31 2134 213168 18240 68% 96 265773 8476 75%
c - 78.19 88 198 32 2142 226844 19702 69% 97 265773 8476 75%
c O 80.33 88 193 32 2142 231040 23481 70% 97 265773 8476 75%
c - 81.34 73 177 33 2143 240946 19289 67% 90 265773 8476 75%
c B 82.62 73 160 33 2144 253041 29598 62% 83 265773 8476 75%
c ] 83.30 73 166 33 2144 255012 31455 63% 84 265773 8476 75%
c { 83.30 73 30 33 2144 255012 31455 23% 24 265773 8476 75%
c - 83.52 76 30 34 2177 255476 18418 23% 24 265773 8476 75%
c - 84.75 76 32 35 2340 270433 16285 23% 24 265773 8476 75%
c F 85.85 76 33 35 2389 276043 20780 22% 24 265773 8476 75%
c s 86.60 76 32 35 2395 278774 22260 22% 23 265773 8476 75%
c s 87.73 76 32 35 2395 278774 21955 22% 23 265773 8476 75%
c - 88.51 76 32 36 2413 285817 21311 22% 23 265773 8476 75%
c B 89.65 76 31 36 2537 300044 30984 21% 23 265773 8476 75%
c 
c  seconds  reductions       redundant   irredundant
c         MB     restarts           trail       variables
c          level      conflicts         glue         remaining
c 
c - 89.93 76 31 37 2570 301629 16639 22% 23 265773 8476 75%
c - 91.28 76 31 38 2615 317874 16704 22% 23 265773 8476 75%
c W 93.37 76 31 38 2621 325045 22319 22% 23 265773 8476 75%
c - 95.03 76 30 39 2752 334542 16075 22% 23 265773 8476 75%
c # 96.24 76 29 39 2834 351046 25580 21% 23 265773 8476 75%
c - 96.41 76 29 40 2847 351636 14251 21% 23 265773 8476 75%
c - 97.86 76 28 41 2895 369157 15301 21% 22 265773 8476 75%
c B 98.61 76 28 41 2957 378049 21456 21% 22 265773 8476 75%
c - 100.12 76 29 42 3668 387106 15912 22% 23 265773 8476 75%
c - 102.21 76 29 43 4001 405484 14197 22% 23 265773 8476 75%
c W 104.24 76 29 43 4012 406051 14405 22% 23 265773 8476 75%
c - 105.58 76 28 44 4239 424288 13345 22% 23 265773 8476 75%
c F 106.35 76 28 44 4326 435054 19066 22% 23 265773 8476 75%
c - 107.13 76 27 45 4367 443518 15572 22% 23 265773 8476 75%
c - 109.37 76 27 46 4518 463176 16113 22% 23 265773 8476 75%
c B 109.50 76 27 46 4519 465058 17244 22% 23 265773 8476 75%
c - 110.96 76 27 47 4641 483261 16886 22% 23 265773 8476 75%
c W 113.93 76 26 47 4644 496061 25658 21% 22 265773 8476 75%
c - 114.67 76 26 48 4654 503773 18405 21% 22 265773 8476 75%
c } 115.17 76 26 48 4656 511013 22910 21% 22 265773 8476 75%
c 
c  seconds    reductions       redundant   irredundant
c          MB      restarts           trail       variables
c            level      conflicts         glue         remaining
c 
c [ 115.17 76 166 48 4656 511013 22910 63% 84 265773 8476 75%
c - 116.37 76 145 49 4656 524714 19307 56% 75 265773 8476 75%
c W 119.69 76 141 49 4656 528065 21821 54% 73 265773 8476 75%
c - 121.27 82 120 50 4661 546081 21599 47% 64 265773 8476 75%
c I 122.50 82 106 50 4670 561068 32512 43% 58 265773 8476 75%
c - 125.65 82 266 51 4671 567876 23830 45% 79 265773 8476 75%
c - 135.59 112 285 52 4682 590098 27494 51% 103 265773 8476 75%
c B 137.80 112 279 52 4685 595069 32056 52% 104 265773 8476 75%
c - 146.69 83 252 53 4687 612750 27980 57% 103 265773 8476 75%
c W 157.18 83 229 53 4693 630071 42670 60% 102 265773 8476 75%
c - 160.08 92 223 54 4695 635828 28879 61% 102 265773 8476 75%
c - 170.88 92 200 55 4705 659332 29523 64% 102 265773 8476 75%
c O 174.11 92 195 55 4709 666074 35707 65% 102 265773 8476 75%
c - 176.71 92 170 56 4717 683265 29234 61% 92 265773 8476 75%
c s 176.89 92 170 56 4717 683265 26965 61% 92 265773 8476 75%
c w 177.45 92 170 56 4717 683265 26956 61% 92 265773 8476 75%
c B 179.50 92 146 56 4718 703075 41200 55% 81 265773 8476 75%
c - 181.18 92 167 57 4719 707624 30598 55% 83 265773 8476 75%
c - 191.24 92 159 58 4719 732411 31250 60% 87 265773 8476 75%
c W 198.76 92 157 58 4720 741077 39408 61% 87 265773 8476 75%
c 
c  seconds     reductions       redundant   irredundant
c           MB      restarts           trail       variables
c             level      conflicts         glue         remaining
c 
c - 206.90 111 150 59 4720 757625 33400 64% 88 265773 8476 75%
c I 219.48 111 143 59 4720 780080 53519 66% 90 265773 8476 75%
c - 220.36 111 177 60 4720 783266 34558 66% 92 265773 8476 75%
c - 227.06 111 378 61 4723 809336 31348 65% 101 265773 8476 75%
c B 231.55 111 360 61 4729 820081 41293 66% 103 265773 8476 75%
c - 240.65 123 332 62 4735 835831 32266 68% 106 265773 8476 75%
c W 262.25 123 292 62 4749 861082 54856 70% 108 265773 8476 75%
c - 263.27 123 290 63 4749 862755 34819 70% 108 265773 8476 75%
c - 282.97 123 252 64 4752 890107 36397 72% 107 265773 8476 75%
c O 293.05 123 237 64 4760 903083 48553 73% 106 265773 8476 75%
c - 295.10 123 212 65 4766 917885 36449 69% 98 265773 8476 75%
c B 299.41 123 171 65 4780 946085 58236 61% 84 265773 8476 75%
c - 299.62 123 171 66 4780 946090 32771 61% 84 265773 8476 75%
c - 315.54 123 171 67 4783 974723 34914 65% 89 265773 8476 75%
c W 331.02 123 165 67 4783 990086 49054 67% 91 265773 8476 75%
c - 341.61 123 160 68 4783 1003785 39045 68% 93 265773 8476 75%
c ] 352.11 123 153 68 4794 1023013 55867 70% 94 265773 8476 75%
c { 352.11 123 26 68 4794 1023013 55867 21% 22 265773 8476 75%
c - 353.19 123 26 69 5219 1033272 34819 21% 22 265773 8476 75%
c # 353.32 123 26 69 5258 1035090 35663 21% 22 265773 8476 75%
c 
c  seconds   reductions        redundant   irredundant
c          MB     restarts            trail       variables
c           level       conflicts         glue         remaining
c 
c - 356.66 63 25 70 5411 1063188 27615 20% 22 265773 8476 75%
c B 358.52 63 25 70 5497 1081091 38452 20% 22 265773 8476 75%
c - 359.79 74 26 71 6040 1093530 26219 20% 22 265773 8476 75%
c - 362.45 74 25 72 6298 1124300 24511 20% 22 265773 8476 75%
c W 369.14 74 25 72 6407 1128094 26765 20% 22 265773 8476 75%
c - 372.55 74 24 73 6648 1155497 23971 20% 21 265773 8476 75%
c s 372.74 74 24 73 6648 1155497 21908 20% 21 265773 8476 75%
c w 373.37 74 24 73 6648 1155497 21908 20% 21 265773 8476 75%
c F 375.53 74 24 73 6831 1176097 32938 20% 21 265773 8476 75%
c - 376.68 84 24 74 6865 1187123 24957 20% 21 265773 8476 75%
c - 379.89 84 23 75 7028 1219174 26120 20% 21 265773 8476 75%
c B 380.45 84 23 75 7066 1225101 29456 20% 21 265773 8476 75%
c - 383.12 84 32 76 9405 1251652 28463 21% 22 265773 8476 75%
c W 393.80 84 34 76 10225 1275103 43283 21% 22 265773 8476 75%
c - 394.84 86 33 77 10332 1284558 28427 21% 22 265773 8476 75%
c - 398.22 86 30 78 11018 1317891 24028 21% 22 265773 8476 75%
c # 398.96 86 30 78 11136 1326104 28135 21% 22 265773 8476 75%
c - 401.12 86 29 79 11725 1351655 24868 21% 22 265773 8476 75%
c B 403.37 86 27 79 12210 1378105 38774 21% 22 265773 8476 75%
c - 404.85 86 27 80 12409 1385843 25392 21% 22 265773 8476 75%
c 
c  seconds   reductions         redundant   irredundant
c          MB      restarts            trail       variables
c           level        conflicts         glue         remaining
c 
c - 407.48 86 26 81 12725 1420458 25533 20% 22 265773 8476 75%
c W 415.32 86 26 81 12763 1431106 31799 20% 22 265773 8476 75%
c - 417.52 86 25 82 13058 1455500 26158 20% 21 265773 8476 75%
c F 419.98 86 24 82 13493 1485107 41468 20% 21 265773 8476 75%
c - 420.66 86 24 83 13522 1490973 26963 19% 21 265773 8476 75%
c - 425.15 86 24 84 13729 1526872 29781 19% 21 265773 8476 75%
c B 426.46 86 24 84 13850 1540108 37695 19% 21 265773 8476 75%
c - 428.54 86 24 85 16620 1563199 27971 20% 21 265773 8476 75%
c W 439.40 86 24 85 17067 1596109 45881 20% 21 265773 8476 75%
c - 440.02 86 24 86 17089 1599952 27888 20% 21 265773 8476 75%
c - 443.98 86 24 87 17443 1637131 27849 20% 21 265773 8476 75%
c # 445.29 86 23 87 17570 1653111 37121 20% 21 265773 8476 75%
c - 447.14 86 23 88 18336 1674739 29092 20% 21 265773 8476 75%
c s 447.21 86 23 88 18336 1674739 26839 20% 21 265773 8476 75%
c w 447.82 86 23 88 18336 1674739 26836 20% 21 265773 8476 75%
c B 451.35 86 23 88 18749 1711114 47093 20% 21 265773 8476 75%
c - 451.89 86 24 89 18877 1712775 29097 20% 21 265773 8476 75%
c - 455.79 86 27 90 19861 1751236 36902 20% 21 265773 8476 75%
c W 466.76 86 27 90 20327 1770115 48580 20% 21 265773 8476 75%
c - 468.47 88 27 91 21432 1790126 32281 21% 22 265773 8476 75%
c 
c  seconds   reductions         redundant   irredundant
c          MB      restarts            trail       variables
c           level        conflicts         glue         remaining
c 
c - 471.59 88 26 92 22611 1829443 27230 21% 22 265773 8476 75%
c F 471.66 88 26 92 22611 1830118 27588 21% 22 265773 8476 75%
c - 475.60 88 25 93 22851 1869187 32144 21% 22 265773 8476 75%
c B 478.40 88 25 93 23072 1891122 44884 21% 22 265773 8476 75%
c - 480.23 88 25 94 23432 1909358 31742 22% 22 265773 8476 75%
c - 484.30 88 25 95 24005 1949957 30717 21% 22 265773 8476 75%
c W 494.26 88 25 95 24057 1953125 32291 21% 22 265773 8476 75%
c - 498.13 88 24 96 24397 1990984 29870 21% 22 265773 8476 75%
c # 500.53 88 24 96 24747 2016126 42951 21% 22 265773 8476 75%
c - 503.00 88 24 97 24881 2032439 31147 21% 21 265773 8476 75%
c } 504.11 88 24 97 25182 2047014 39207 21% 22 265773 8476 75%
c [ 504.11 88 153 97 25182 2047014 39207 70% 94 265773 8476 75%
c - 506.69 88 124 98 25193 2074320 33937 58% 78 265773 8476 75%
c I 507.41 88 119 98 25198 2080127 37820 56% 75 265773 8476 75%
c - 529.85 128 177 99 25206 2116628 47988 62% 102 265773 8476 75%
c B 544.65 128 170 99 25217 2145131 73493 66% 105 265773 8476 75%
c - 554.40 118 161 100 25226 2159364 49797 68% 103 265773 8476 75%
c - 591.85 104 143 101 25234 2202526 49771 72% 101 265773 8476 75%
c ] 599.94 104 140 101 25234 2211132 56927 72% 101 265773 8476 75%
c ? 599.94 104 140 101 25234 2211132 56927 72% 101 265773 8476 75%
c 
c --- [ result ] -------------------------------------------------------------
c 
c UNKNOWN
c 
c --- [ run-time profiling ] -------------------------------------------------
c 
c process time taken by individual solving procedures
c (percentage relative to process time for solving)
c 
c       565.26   94.26% search
c       359.97   60.03% stable
c       128.05   21.35% unstable
c        77.23   12.88% walk
c        34.44    5.74% simplify
c        17.40    2.90% probe
c         3.21    0.54% vivify
c         2.87    0.48% ternary
c         2.67    0.44% elim
c         2.55    0.43% subsume
c         0.24    0.04% parse
c         0.01    0.00% lucky
c   =================================
c       599.70   99.96% solve
c 
c last line shows process time for solving
c (percentage relative to total process time)
c 
c --- [ statistics ] ---------------------------------------------------------
c 
c chronological:            341562        15.45 %  of conflicts
c conflicts:               2211132      3687.05    per second
c decisions:               2763763      4608.56    per second
c eliminated:                 2149        19.10 %  of all variables
c fixed:                       625         5.56 %  of all variables
c learned:                 2187487        98.93 %  per conflict
c learned_lits:          308483023       100.00 %  learned literals
c minimized:                     0         0.00 %  learned literals
c shrunken:              154066271        49.94 %  learned literals
c minishrunken:           14539022         4.71 %  learned literals
c propagations:          523077996         0.87 M  per second
c reduced:                 1458712        65.97 %  per conflict
c rephased:                     66     33502.00    interval
c restarts:                  25234        87.63    interval
c stabilizing:                   6        38.27 %  of conflicts
c subsumed:                 670585        12.92 %  of all clauses
c strengthened:              39232         0.76 %  of all clauses
c vivified:                    132         0.00 %  of all clauses
c walked:                       21    105292.00    interval
c weakened:                 141067         2.57    average size
c 
c seconds are measured in process time for solving
c 
c --- [ resources ] ----------------------------------------------------------
c 
c total process time since initialization:       599.94    seconds
c total real time since initialization:          600.04    seconds
c maximum resident set size of process:          158.36    MB
c 
c --- [ shutting down ] ------------------------------------------------------
c 
c exit 0
